\* Source Pyomo model name=unknown *\

min 
cost:
+0.01 PowerGeneratingWater(1)
+0.01 PowerGeneratingWater(10)
+0.01 PowerGeneratingWater(11)
+0.01 PowerGeneratingWater(12)
+0.01 PowerGeneratingWater(13)
+0.01 PowerGeneratingWater(14)
+0.01 PowerGeneratingWater(15)
+0.01 PowerGeneratingWater(16)
+0.01 PowerGeneratingWater(17)
+0.01 PowerGeneratingWater(18)
+0.01 PowerGeneratingWater(19)
+0.01 PowerGeneratingWater(2)
+0.01 PowerGeneratingWater(20)
+0.01 PowerGeneratingWater(21)
+0.01 PowerGeneratingWater(22)
+0.01 PowerGeneratingWater(23)
+0.01 PowerGeneratingWater(24)
+0.01 PowerGeneratingWater(3)
+0.01 PowerGeneratingWater(4)
+0.01 PowerGeneratingWater(5)
+0.01 PowerGeneratingWater(6)
+0.01 PowerGeneratingWater(7)
+0.01 PowerGeneratingWater(8)
+0.01 PowerGeneratingWater(9)
+333.33333333333331 Ppv
+50000 Pwind

s.t.

c_l_EnergyDemand(1)_:
+0.0001 PowerGeneratingWater(1)
+0.35082398400000003 Pwind
>= 5.6008825329216005

c_l_EnergyDemand(2)_:
+0.0001 PowerGeneratingWater(2)
+0.672466656 Pwind
>= 5.7845159089632006

c_l_EnergyDemand(3)_:
+0.0001 PowerGeneratingWater(3)
+0.38713856400000002 Pwind
>= 6.2436065228064006

c_l_EnergyDemand(4)_:
+0.0001 PowerGeneratingWater(4)
+0.14558244000000001 Pwind
>= 6.9781472007120016

c_l_EnergyDemand(5)_:
+0.0001 PowerGeneratingWater(5)
+0.12256115999999999 Pwind
>= 7.8045260878559999

c_l_EnergyDemand(6)_:
+0.0001 PowerGeneratingWater(6)
+0.14558244000000001 Pwind
>= 8.3553975210240008

c_l_EnergyDemand(7)_:
+0.0001 PowerGeneratingWater(7)
+1.1521022583701999 Ppv
+0.168602844 Pwind
>= 8.6308691063040008

c_l_EnergyDemand(8)_:
+0.0001 PowerGeneratingWater(8)
+2.2851615042003597 Ppv
+0.28532809199999998 Pwind
>= 8.9981645533440009

c_l_EnergyDemand(9)_:
+0.0001 PowerGeneratingWater(9)
+3.25635514348836 Ppv
+0.42345314399999995 Pwind
>= 8.7226929680640009

c_l_EnergyDemand(10)_:
+0.0001 PowerGeneratingWater(10)
+3.9657073604143194 Ppv
+0.77006181600000001 Pwind
>= 8.6308691063040008

c_l_EnergyDemand(11)_:
+0.0001 PowerGeneratingWater(11)
+4.3037208329102405 Ppv
+1.3747637399999999 Pwind
>= 8.6308691063040008

c_l_EnergyDemand(12)_:
+0.0001 PowerGeneratingWater(12)
+4.2799170672417599 Ppv
+2.296892148 Pwind
>= 9.2735644012320009

c_l_EnergyDemand(13)_:
+0.0001 PowerGeneratingWater(13)
+3.88953531028044 Ppv
+2.8970546400000003 Pwind
>= 8.9981645533440009

c_l_EnergyDemand(14)_:
+0.0001 PowerGeneratingWater(14)
+3.1659008339428802 Ppv
+2.7932985720000003 Pwind
>= 8.3553975210240008

c_l_EnergyDemand(15)_:
+0.0001 PowerGeneratingWater(15)
+2.1756641821236005 Ppv
+1.845555048 Pwind
>= 8.2635736592640008

c_l_EnergyDemand(16)_:
+0.0001 PowerGeneratingWater(16)
+1.01880117062496 Ppv
+0.82356088799999994 Pwind
>= 8.2635736592640008

c_l_EnergyDemand(17)_:
+0.0001 PowerGeneratingWater(17)
+0.090454309541342648 Ppv
+0.38713856400000002 Pwind
>= 9.0899166777120008

c_l_EnergyDemand(18)_:
+0.0001 PowerGeneratingWater(18)
+0.35082398400000003 Pwind
>= 9.916331433552001

c_l_EnergyDemand(19)_:
+0.0001 PowerGeneratingWater(19)
+0.28532809199999998 Pwind
>= 10.926322175520001

c_l_EnergyDemand(20)_:
+0.0001 PowerGeneratingWater(20)
+0.35082398400000003 Pwind
>= 10.559026728480001

c_l_EnergyDemand(21)_:
+0.0001 PowerGeneratingWater(21)
+0.49608230399999997 Pwind
>= 9.7326837100320009

c_l_EnergyDemand(22)_:
+0.0001 PowerGeneratingWater(22)
+0.58427448000000004 Pwind
>= 8.7226929680640009

c_l_EnergyDemand(23)_:
+0.0001 PowerGeneratingWater(23)
+0.54017839199999995 Pwind
>= 7.8963499496159999

c_l_EnergyDemand(24)_:
+0.0001 PowerGeneratingWater(24)
+0.45976772399999999 Pwind
>= 5.8763325969840006

c_u_MaxWaterPower(1)_:
+0.0001 PowerGeneratingWater(1)
<= 100

c_u_MaxWaterPower(2)_:
+0.0001 PowerGeneratingWater(2)
<= 100

c_u_MaxWaterPower(3)_:
+0.0001 PowerGeneratingWater(3)
<= 100

c_u_MaxWaterPower(4)_:
+0.0001 PowerGeneratingWater(4)
<= 100

c_u_MaxWaterPower(5)_:
+0.0001 PowerGeneratingWater(5)
<= 100

c_u_MaxWaterPower(6)_:
+0.0001 PowerGeneratingWater(6)
<= 100

c_u_MaxWaterPower(7)_:
+0.0001 PowerGeneratingWater(7)
<= 100

c_u_MaxWaterPower(8)_:
+0.0001 PowerGeneratingWater(8)
<= 100

c_u_MaxWaterPower(9)_:
+0.0001 PowerGeneratingWater(9)
<= 100

c_u_MaxWaterPower(10)_:
+0.0001 PowerGeneratingWater(10)
<= 100

c_u_MaxWaterPower(11)_:
+0.0001 PowerGeneratingWater(11)
<= 100

c_u_MaxWaterPower(12)_:
+0.0001 PowerGeneratingWater(12)
<= 100

c_u_MaxWaterPower(13)_:
+0.0001 PowerGeneratingWater(13)
<= 100

c_u_MaxWaterPower(14)_:
+0.0001 PowerGeneratingWater(14)
<= 100

c_u_MaxWaterPower(15)_:
+0.0001 PowerGeneratingWater(15)
<= 100

c_u_MaxWaterPower(16)_:
+0.0001 PowerGeneratingWater(16)
<= 100

c_u_MaxWaterPower(17)_:
+0.0001 PowerGeneratingWater(17)
<= 100

c_u_MaxWaterPower(18)_:
+0.0001 PowerGeneratingWater(18)
<= 100

c_u_MaxWaterPower(19)_:
+0.0001 PowerGeneratingWater(19)
<= 100

c_u_MaxWaterPower(20)_:
+0.0001 PowerGeneratingWater(20)
<= 100

c_u_MaxWaterPower(21)_:
+0.0001 PowerGeneratingWater(21)
<= 100

c_u_MaxWaterPower(22)_:
+0.0001 PowerGeneratingWater(22)
<= 100

c_u_MaxWaterPower(23)_:
+0.0001 PowerGeneratingWater(23)
<= 100

c_u_MaxWaterPower(24)_:
+0.0001 PowerGeneratingWater(24)
<= 100

c_u_WaterDemand(1)_:
+1 PowerGeneratingWater(1)
<= 8000

c_u_WaterDemand(2)_:
+1 PowerGeneratingWater(1)
+1 PowerGeneratingWater(2)
<= 9673.1943756276087

c_u_WaterDemand(3)_:
+1 PowerGeneratingWater(1)
+1 PowerGeneratingWater(2)
+1 PowerGeneratingWater(3)
<= 11346.388751255216

c_u_WaterDemand(4)_:
+1 PowerGeneratingWater(1)
+1 PowerGeneratingWater(2)
+1 PowerGeneratingWater(3)
+1 PowerGeneratingWater(4)
<= 13019.583126882824

c_u_WaterDemand(5)_:
+1 PowerGeneratingWater(1)
+1 PowerGeneratingWater(2)
+1 PowerGeneratingWater(3)
+1 PowerGeneratingWater(4)
+1 PowerGeneratingWater(5)
<= 14692.777502510433

c_u_WaterDemand(6)_:
+1 PowerGeneratingWater(1)
+1 PowerGeneratingWater(2)
+1 PowerGeneratingWater(3)
+1 PowerGeneratingWater(4)
+1 PowerGeneratingWater(5)
+1 PowerGeneratingWater(6)
<= 16365.97187813804

c_u_WaterDemand(7)_:
+1 PowerGeneratingWater(1)
+1 PowerGeneratingWater(2)
+1 PowerGeneratingWater(3)
+1 PowerGeneratingWater(4)
+1 PowerGeneratingWater(5)
+1 PowerGeneratingWater(6)
+1 PowerGeneratingWater(7)
<= 18039.166253765648

c_u_WaterDemand(8)_:
+1 PowerGeneratingWater(1)
+1 PowerGeneratingWater(2)
+1 PowerGeneratingWater(3)
+1 PowerGeneratingWater(4)
+1 PowerGeneratingWater(5)
+1 PowerGeneratingWater(6)
+1 PowerGeneratingWater(7)
+1 PowerGeneratingWater(8)
<= 19712.360629393257

c_u_WaterDemand(9)_:
+1 PowerGeneratingWater(1)
+1 PowerGeneratingWater(2)
+1 PowerGeneratingWater(3)
+1 PowerGeneratingWater(4)
+1 PowerGeneratingWater(5)
+1 PowerGeneratingWater(6)
+1 PowerGeneratingWater(7)
+1 PowerGeneratingWater(8)
+1 PowerGeneratingWater(9)
<= 21385.555005020866

c_u_WaterDemand(10)_:
+1 PowerGeneratingWater(1)
+1 PowerGeneratingWater(10)
+1 PowerGeneratingWater(2)
+1 PowerGeneratingWater(3)
+1 PowerGeneratingWater(4)
+1 PowerGeneratingWater(5)
+1 PowerGeneratingWater(6)
+1 PowerGeneratingWater(7)
+1 PowerGeneratingWater(8)
+1 PowerGeneratingWater(9)
<= 23058.749380648471

c_u_WaterDemand(11)_:
+1 PowerGeneratingWater(1)
+1 PowerGeneratingWater(10)
+1 PowerGeneratingWater(11)
+1 PowerGeneratingWater(2)
+1 PowerGeneratingWater(3)
+1 PowerGeneratingWater(4)
+1 PowerGeneratingWater(5)
+1 PowerGeneratingWater(6)
+1 PowerGeneratingWater(7)
+1 PowerGeneratingWater(8)
+1 PowerGeneratingWater(9)
<= 24731.94375627608

c_u_WaterDemand(12)_:
+1 PowerGeneratingWater(1)
+1 PowerGeneratingWater(10)
+1 PowerGeneratingWater(11)
+1 PowerGeneratingWater(12)
+1 PowerGeneratingWater(2)
+1 PowerGeneratingWater(3)
+1 PowerGeneratingWater(4)
+1 PowerGeneratingWater(5)
+1 PowerGeneratingWater(6)
+1 PowerGeneratingWater(7)
+1 PowerGeneratingWater(8)
+1 PowerGeneratingWater(9)
<= 26405.138131903688

c_u_WaterDemand(13)_:
+1 PowerGeneratingWater(1)
+1 PowerGeneratingWater(10)
+1 PowerGeneratingWater(11)
+1 PowerGeneratingWater(12)
+1 PowerGeneratingWater(13)
+1 PowerGeneratingWater(2)
+1 PowerGeneratingWater(3)
+1 PowerGeneratingWater(4)
+1 PowerGeneratingWater(5)
+1 PowerGeneratingWater(6)
+1 PowerGeneratingWater(7)
+1 PowerGeneratingWater(8)
+1 PowerGeneratingWater(9)
<= 28078.332507531297

c_u_WaterDemand(14)_:
+1 PowerGeneratingWater(1)
+1 PowerGeneratingWater(10)
+1 PowerGeneratingWater(11)
+1 PowerGeneratingWater(12)
+1 PowerGeneratingWater(13)
+1 PowerGeneratingWater(14)
+1 PowerGeneratingWater(2)
+1 PowerGeneratingWater(3)
+1 PowerGeneratingWater(4)
+1 PowerGeneratingWater(5)
+1 PowerGeneratingWater(6)
+1 PowerGeneratingWater(7)
+1 PowerGeneratingWater(8)
+1 PowerGeneratingWater(9)
<= 29751.526883158906

c_u_WaterDemand(15)_:
+1 PowerGeneratingWater(1)
+1 PowerGeneratingWater(10)
+1 PowerGeneratingWater(11)
+1 PowerGeneratingWater(12)
+1 PowerGeneratingWater(13)
+1 PowerGeneratingWater(14)
+1 PowerGeneratingWater(15)
+1 PowerGeneratingWater(2)
+1 PowerGeneratingWater(3)
+1 PowerGeneratingWater(4)
+1 PowerGeneratingWater(5)
+1 PowerGeneratingWater(6)
+1 PowerGeneratingWater(7)
+1 PowerGeneratingWater(8)
+1 PowerGeneratingWater(9)
<= 31424.721258786514

c_u_WaterDemand(16)_:
+1 PowerGeneratingWater(1)
+1 PowerGeneratingWater(10)
+1 PowerGeneratingWater(11)
+1 PowerGeneratingWater(12)
+1 PowerGeneratingWater(13)
+1 PowerGeneratingWater(14)
+1 PowerGeneratingWater(15)
+1 PowerGeneratingWater(16)
+1 PowerGeneratingWater(2)
+1 PowerGeneratingWater(3)
+1 PowerGeneratingWater(4)
+1 PowerGeneratingWater(5)
+1 PowerGeneratingWater(6)
+1 PowerGeneratingWater(7)
+1 PowerGeneratingWater(8)
+1 PowerGeneratingWater(9)
<= 33097.915634414123

c_u_WaterDemand(17)_:
+1 PowerGeneratingWater(1)
+1 PowerGeneratingWater(10)
+1 PowerGeneratingWater(11)
+1 PowerGeneratingWater(12)
+1 PowerGeneratingWater(13)
+1 PowerGeneratingWater(14)
+1 PowerGeneratingWater(15)
+1 PowerGeneratingWater(16)
+1 PowerGeneratingWater(17)
+1 PowerGeneratingWater(2)
+1 PowerGeneratingWater(3)
+1 PowerGeneratingWater(4)
+1 PowerGeneratingWater(5)
+1 PowerGeneratingWater(6)
+1 PowerGeneratingWater(7)
+1 PowerGeneratingWater(8)
+1 PowerGeneratingWater(9)
<= 34771.110010041732

c_u_WaterDemand(18)_:
+1 PowerGeneratingWater(1)
+1 PowerGeneratingWater(10)
+1 PowerGeneratingWater(11)
+1 PowerGeneratingWater(12)
+1 PowerGeneratingWater(13)
+1 PowerGeneratingWater(14)
+1 PowerGeneratingWater(15)
+1 PowerGeneratingWater(16)
+1 PowerGeneratingWater(17)
+1 PowerGeneratingWater(18)
+1 PowerGeneratingWater(2)
+1 PowerGeneratingWater(3)
+1 PowerGeneratingWater(4)
+1 PowerGeneratingWater(5)
+1 PowerGeneratingWater(6)
+1 PowerGeneratingWater(7)
+1 PowerGeneratingWater(8)
+1 PowerGeneratingWater(9)
<= 36444.30438566934

c_u_WaterDemand(19)_:
+1 PowerGeneratingWater(1)
+1 PowerGeneratingWater(10)
+1 PowerGeneratingWater(11)
+1 PowerGeneratingWater(12)
+1 PowerGeneratingWater(13)
+1 PowerGeneratingWater(14)
+1 PowerGeneratingWater(15)
+1 PowerGeneratingWater(16)
+1 PowerGeneratingWater(17)
+1 PowerGeneratingWater(18)
+1 PowerGeneratingWater(19)
+1 PowerGeneratingWater(2)
+1 PowerGeneratingWater(3)
+1 PowerGeneratingWater(4)
+1 PowerGeneratingWater(5)
+1 PowerGeneratingWater(6)
+1 PowerGeneratingWater(7)
+1 PowerGeneratingWater(8)
+1 PowerGeneratingWater(9)
<= 38117.498761296942

c_u_WaterDemand(20)_:
+1 PowerGeneratingWater(1)
+1 PowerGeneratingWater(10)
+1 PowerGeneratingWater(11)
+1 PowerGeneratingWater(12)
+1 PowerGeneratingWater(13)
+1 PowerGeneratingWater(14)
+1 PowerGeneratingWater(15)
+1 PowerGeneratingWater(16)
+1 PowerGeneratingWater(17)
+1 PowerGeneratingWater(18)
+1 PowerGeneratingWater(19)
+1 PowerGeneratingWater(2)
+1 PowerGeneratingWater(20)
+1 PowerGeneratingWater(3)
+1 PowerGeneratingWater(4)
+1 PowerGeneratingWater(5)
+1 PowerGeneratingWater(6)
+1 PowerGeneratingWater(7)
+1 PowerGeneratingWater(8)
+1 PowerGeneratingWater(9)
<= 39790.69313692455

c_u_WaterDemand(21)_:
+1 PowerGeneratingWater(1)
+1 PowerGeneratingWater(10)
+1 PowerGeneratingWater(11)
+1 PowerGeneratingWater(12)
+1 PowerGeneratingWater(13)
+1 PowerGeneratingWater(14)
+1 PowerGeneratingWater(15)
+1 PowerGeneratingWater(16)
+1 PowerGeneratingWater(17)
+1 PowerGeneratingWater(18)
+1 PowerGeneratingWater(19)
+1 PowerGeneratingWater(2)
+1 PowerGeneratingWater(20)
+1 PowerGeneratingWater(21)
+1 PowerGeneratingWater(3)
+1 PowerGeneratingWater(4)
+1 PowerGeneratingWater(5)
+1 PowerGeneratingWater(6)
+1 PowerGeneratingWater(7)
+1 PowerGeneratingWater(8)
+1 PowerGeneratingWater(9)
<= 41463.887512552159

c_u_WaterDemand(22)_:
+1 PowerGeneratingWater(1)
+1 PowerGeneratingWater(10)
+1 PowerGeneratingWater(11)
+1 PowerGeneratingWater(12)
+1 PowerGeneratingWater(13)
+1 PowerGeneratingWater(14)
+1 PowerGeneratingWater(15)
+1 PowerGeneratingWater(16)
+1 PowerGeneratingWater(17)
+1 PowerGeneratingWater(18)
+1 PowerGeneratingWater(19)
+1 PowerGeneratingWater(2)
+1 PowerGeneratingWater(20)
+1 PowerGeneratingWater(21)
+1 PowerGeneratingWater(22)
+1 PowerGeneratingWater(3)
+1 PowerGeneratingWater(4)
+1 PowerGeneratingWater(5)
+1 PowerGeneratingWater(6)
+1 PowerGeneratingWater(7)
+1 PowerGeneratingWater(8)
+1 PowerGeneratingWater(9)
<= 43137.081888179768

c_u_WaterDemand(23)_:
+1 PowerGeneratingWater(1)
+1 PowerGeneratingWater(10)
+1 PowerGeneratingWater(11)
+1 PowerGeneratingWater(12)
+1 PowerGeneratingWater(13)
+1 PowerGeneratingWater(14)
+1 PowerGeneratingWater(15)
+1 PowerGeneratingWater(16)
+1 PowerGeneratingWater(17)
+1 PowerGeneratingWater(18)
+1 PowerGeneratingWater(19)
+1 PowerGeneratingWater(2)
+1 PowerGeneratingWater(20)
+1 PowerGeneratingWater(21)
+1 PowerGeneratingWater(22)
+1 PowerGeneratingWater(23)
+1 PowerGeneratingWater(3)
+1 PowerGeneratingWater(4)
+1 PowerGeneratingWater(5)
+1 PowerGeneratingWater(6)
+1 PowerGeneratingWater(7)
+1 PowerGeneratingWater(8)
+1 PowerGeneratingWater(9)
<= 44810.276263807376

c_u_WaterDemand(24)_:
+1 PowerGeneratingWater(1)
+1 PowerGeneratingWater(10)
+1 PowerGeneratingWater(11)
+1 PowerGeneratingWater(12)
+1 PowerGeneratingWater(13)
+1 PowerGeneratingWater(14)
+1 PowerGeneratingWater(15)
+1 PowerGeneratingWater(16)
+1 PowerGeneratingWater(17)
+1 PowerGeneratingWater(18)
+1 PowerGeneratingWater(19)
+1 PowerGeneratingWater(2)
+1 PowerGeneratingWater(20)
+1 PowerGeneratingWater(21)
+1 PowerGeneratingWater(22)
+1 PowerGeneratingWater(23)
+1 PowerGeneratingWater(24)
+1 PowerGeneratingWater(3)
+1 PowerGeneratingWater(4)
+1 PowerGeneratingWater(5)
+1 PowerGeneratingWater(6)
+1 PowerGeneratingWater(7)
+1 PowerGeneratingWater(8)
+1 PowerGeneratingWater(9)
<= 46483.470639434985

c_u_MaxStorageCapacity(1)_:
+0 ONE_VAR_CONSTANT
<= 0

c_u_MaxStorageCapacity(2)_:
-1 PowerGeneratingWater(1)
<= -1673.1943756276087

c_u_MaxStorageCapacity(3)_:
-1 PowerGeneratingWater(1)
-1 PowerGeneratingWater(2)
<= -3346.3887512552155

c_u_MaxStorageCapacity(4)_:
-1 PowerGeneratingWater(1)
-1 PowerGeneratingWater(2)
-1 PowerGeneratingWater(3)
<= -5019.5831268828242

c_u_MaxStorageCapacity(5)_:
-1 PowerGeneratingWater(1)
-1 PowerGeneratingWater(2)
-1 PowerGeneratingWater(3)
-1 PowerGeneratingWater(4)
<= -6692.7775025104329

c_u_MaxStorageCapacity(6)_:
-1 PowerGeneratingWater(1)
-1 PowerGeneratingWater(2)
-1 PowerGeneratingWater(3)
-1 PowerGeneratingWater(4)
-1 PowerGeneratingWater(5)
<= -8365.9718781380398

c_u_MaxStorageCapacity(7)_:
-1 PowerGeneratingWater(1)
-1 PowerGeneratingWater(2)
-1 PowerGeneratingWater(3)
-1 PowerGeneratingWater(4)
-1 PowerGeneratingWater(5)
-1 PowerGeneratingWater(6)
<= -10039.166253765648

c_u_MaxStorageCapacity(8)_:
-1 PowerGeneratingWater(1)
-1 PowerGeneratingWater(2)
-1 PowerGeneratingWater(3)
-1 PowerGeneratingWater(4)
-1 PowerGeneratingWater(5)
-1 PowerGeneratingWater(6)
-1 PowerGeneratingWater(7)
<= -11712.360629393257

c_u_MaxStorageCapacity(9)_:
-1 PowerGeneratingWater(1)
-1 PowerGeneratingWater(2)
-1 PowerGeneratingWater(3)
-1 PowerGeneratingWater(4)
-1 PowerGeneratingWater(5)
-1 PowerGeneratingWater(6)
-1 PowerGeneratingWater(7)
-1 PowerGeneratingWater(8)
<= -13385.555005020866

c_u_MaxStorageCapacity(10)_:
-1 PowerGeneratingWater(1)
-1 PowerGeneratingWater(2)
-1 PowerGeneratingWater(3)
-1 PowerGeneratingWater(4)
-1 PowerGeneratingWater(5)
-1 PowerGeneratingWater(6)
-1 PowerGeneratingWater(7)
-1 PowerGeneratingWater(8)
-1 PowerGeneratingWater(9)
<= -15058.749380648471

c_u_MaxStorageCapacity(11)_:
-1 PowerGeneratingWater(1)
-1 PowerGeneratingWater(10)
-1 PowerGeneratingWater(2)
-1 PowerGeneratingWater(3)
-1 PowerGeneratingWater(4)
-1 PowerGeneratingWater(5)
-1 PowerGeneratingWater(6)
-1 PowerGeneratingWater(7)
-1 PowerGeneratingWater(8)
-1 PowerGeneratingWater(9)
<= -16731.94375627608

c_u_MaxStorageCapacity(12)_:
-1 PowerGeneratingWater(1)
-1 PowerGeneratingWater(10)
-1 PowerGeneratingWater(11)
-1 PowerGeneratingWater(2)
-1 PowerGeneratingWater(3)
-1 PowerGeneratingWater(4)
-1 PowerGeneratingWater(5)
-1 PowerGeneratingWater(6)
-1 PowerGeneratingWater(7)
-1 PowerGeneratingWater(8)
-1 PowerGeneratingWater(9)
<= -18405.138131903688

c_u_MaxStorageCapacity(13)_:
-1 PowerGeneratingWater(1)
-1 PowerGeneratingWater(10)
-1 PowerGeneratingWater(11)
-1 PowerGeneratingWater(12)
-1 PowerGeneratingWater(2)
-1 PowerGeneratingWater(3)
-1 PowerGeneratingWater(4)
-1 PowerGeneratingWater(5)
-1 PowerGeneratingWater(6)
-1 PowerGeneratingWater(7)
-1 PowerGeneratingWater(8)
-1 PowerGeneratingWater(9)
<= -20078.332507531297

c_u_MaxStorageCapacity(14)_:
-1 PowerGeneratingWater(1)
-1 PowerGeneratingWater(10)
-1 PowerGeneratingWater(11)
-1 PowerGeneratingWater(12)
-1 PowerGeneratingWater(13)
-1 PowerGeneratingWater(2)
-1 PowerGeneratingWater(3)
-1 PowerGeneratingWater(4)
-1 PowerGeneratingWater(5)
-1 PowerGeneratingWater(6)
-1 PowerGeneratingWater(7)
-1 PowerGeneratingWater(8)
-1 PowerGeneratingWater(9)
<= -21751.526883158906

c_u_MaxStorageCapacity(15)_:
-1 PowerGeneratingWater(1)
-1 PowerGeneratingWater(10)
-1 PowerGeneratingWater(11)
-1 PowerGeneratingWater(12)
-1 PowerGeneratingWater(13)
-1 PowerGeneratingWater(14)
-1 PowerGeneratingWater(2)
-1 PowerGeneratingWater(3)
-1 PowerGeneratingWater(4)
-1 PowerGeneratingWater(5)
-1 PowerGeneratingWater(6)
-1 PowerGeneratingWater(7)
-1 PowerGeneratingWater(8)
-1 PowerGeneratingWater(9)
<= -23424.721258786514

c_u_MaxStorageCapacity(16)_:
-1 PowerGeneratingWater(1)
-1 PowerGeneratingWater(10)
-1 PowerGeneratingWater(11)
-1 PowerGeneratingWater(12)
-1 PowerGeneratingWater(13)
-1 PowerGeneratingWater(14)
-1 PowerGeneratingWater(15)
-1 PowerGeneratingWater(2)
-1 PowerGeneratingWater(3)
-1 PowerGeneratingWater(4)
-1 PowerGeneratingWater(5)
-1 PowerGeneratingWater(6)
-1 PowerGeneratingWater(7)
-1 PowerGeneratingWater(8)
-1 PowerGeneratingWater(9)
<= -25097.915634414123

c_u_MaxStorageCapacity(17)_:
-1 PowerGeneratingWater(1)
-1 PowerGeneratingWater(10)
-1 PowerGeneratingWater(11)
-1 PowerGeneratingWater(12)
-1 PowerGeneratingWater(13)
-1 PowerGeneratingWater(14)
-1 PowerGeneratingWater(15)
-1 PowerGeneratingWater(16)
-1 PowerGeneratingWater(2)
-1 PowerGeneratingWater(3)
-1 PowerGeneratingWater(4)
-1 PowerGeneratingWater(5)
-1 PowerGeneratingWater(6)
-1 PowerGeneratingWater(7)
-1 PowerGeneratingWater(8)
-1 PowerGeneratingWater(9)
<= -26771.110010041732

c_u_MaxStorageCapacity(18)_:
-1 PowerGeneratingWater(1)
-1 PowerGeneratingWater(10)
-1 PowerGeneratingWater(11)
-1 PowerGeneratingWater(12)
-1 PowerGeneratingWater(13)
-1 PowerGeneratingWater(14)
-1 PowerGeneratingWater(15)
-1 PowerGeneratingWater(16)
-1 PowerGeneratingWater(17)
-1 PowerGeneratingWater(2)
-1 PowerGeneratingWater(3)
-1 PowerGeneratingWater(4)
-1 PowerGeneratingWater(5)
-1 PowerGeneratingWater(6)
-1 PowerGeneratingWater(7)
-1 PowerGeneratingWater(8)
-1 PowerGeneratingWater(9)
<= -28444.30438566934

c_u_MaxStorageCapacity(19)_:
-1 PowerGeneratingWater(1)
-1 PowerGeneratingWater(10)
-1 PowerGeneratingWater(11)
-1 PowerGeneratingWater(12)
-1 PowerGeneratingWater(13)
-1 PowerGeneratingWater(14)
-1 PowerGeneratingWater(15)
-1 PowerGeneratingWater(16)
-1 PowerGeneratingWater(17)
-1 PowerGeneratingWater(18)
-1 PowerGeneratingWater(2)
-1 PowerGeneratingWater(3)
-1 PowerGeneratingWater(4)
-1 PowerGeneratingWater(5)
-1 PowerGeneratingWater(6)
-1 PowerGeneratingWater(7)
-1 PowerGeneratingWater(8)
-1 PowerGeneratingWater(9)
<= -30117.498761296942

c_u_MaxStorageCapacity(20)_:
-1 PowerGeneratingWater(1)
-1 PowerGeneratingWater(10)
-1 PowerGeneratingWater(11)
-1 PowerGeneratingWater(12)
-1 PowerGeneratingWater(13)
-1 PowerGeneratingWater(14)
-1 PowerGeneratingWater(15)
-1 PowerGeneratingWater(16)
-1 PowerGeneratingWater(17)
-1 PowerGeneratingWater(18)
-1 PowerGeneratingWater(19)
-1 PowerGeneratingWater(2)
-1 PowerGeneratingWater(3)
-1 PowerGeneratingWater(4)
-1 PowerGeneratingWater(5)
-1 PowerGeneratingWater(6)
-1 PowerGeneratingWater(7)
-1 PowerGeneratingWater(8)
-1 PowerGeneratingWater(9)
<= -31790.69313692455

c_u_MaxStorageCapacity(21)_:
-1 PowerGeneratingWater(1)
-1 PowerGeneratingWater(10)
-1 PowerGeneratingWater(11)
-1 PowerGeneratingWater(12)
-1 PowerGeneratingWater(13)
-1 PowerGeneratingWater(14)
-1 PowerGeneratingWater(15)
-1 PowerGeneratingWater(16)
-1 PowerGeneratingWater(17)
-1 PowerGeneratingWater(18)
-1 PowerGeneratingWater(19)
-1 PowerGeneratingWater(2)
-1 PowerGeneratingWater(20)
-1 PowerGeneratingWater(3)
-1 PowerGeneratingWater(4)
-1 PowerGeneratingWater(5)
-1 PowerGeneratingWater(6)
-1 PowerGeneratingWater(7)
-1 PowerGeneratingWater(8)
-1 PowerGeneratingWater(9)
<= -33463.887512552159

c_u_MaxStorageCapacity(22)_:
-1 PowerGeneratingWater(1)
-1 PowerGeneratingWater(10)
-1 PowerGeneratingWater(11)
-1 PowerGeneratingWater(12)
-1 PowerGeneratingWater(13)
-1 PowerGeneratingWater(14)
-1 PowerGeneratingWater(15)
-1 PowerGeneratingWater(16)
-1 PowerGeneratingWater(17)
-1 PowerGeneratingWater(18)
-1 PowerGeneratingWater(19)
-1 PowerGeneratingWater(2)
-1 PowerGeneratingWater(20)
-1 PowerGeneratingWater(21)
-1 PowerGeneratingWater(3)
-1 PowerGeneratingWater(4)
-1 PowerGeneratingWater(5)
-1 PowerGeneratingWater(6)
-1 PowerGeneratingWater(7)
-1 PowerGeneratingWater(8)
-1 PowerGeneratingWater(9)
<= -35137.081888179768

c_u_MaxStorageCapacity(23)_:
-1 PowerGeneratingWater(1)
-1 PowerGeneratingWater(10)
-1 PowerGeneratingWater(11)
-1 PowerGeneratingWater(12)
-1 PowerGeneratingWater(13)
-1 PowerGeneratingWater(14)
-1 PowerGeneratingWater(15)
-1 PowerGeneratingWater(16)
-1 PowerGeneratingWater(17)
-1 PowerGeneratingWater(18)
-1 PowerGeneratingWater(19)
-1 PowerGeneratingWater(2)
-1 PowerGeneratingWater(20)
-1 PowerGeneratingWater(21)
-1 PowerGeneratingWater(22)
-1 PowerGeneratingWater(3)
-1 PowerGeneratingWater(4)
-1 PowerGeneratingWater(5)
-1 PowerGeneratingWater(6)
-1 PowerGeneratingWater(7)
-1 PowerGeneratingWater(8)
-1 PowerGeneratingWater(9)
<= -36810.276263807376

c_u_MaxStorageCapacity(24)_:
-1 PowerGeneratingWater(1)
-1 PowerGeneratingWater(10)
-1 PowerGeneratingWater(11)
-1 PowerGeneratingWater(12)
-1 PowerGeneratingWater(13)
-1 PowerGeneratingWater(14)
-1 PowerGeneratingWater(15)
-1 PowerGeneratingWater(16)
-1 PowerGeneratingWater(17)
-1 PowerGeneratingWater(18)
-1 PowerGeneratingWater(19)
-1 PowerGeneratingWater(2)
-1 PowerGeneratingWater(20)
-1 PowerGeneratingWater(21)
-1 PowerGeneratingWater(22)
-1 PowerGeneratingWater(23)
-1 PowerGeneratingWater(3)
-1 PowerGeneratingWater(4)
-1 PowerGeneratingWater(5)
-1 PowerGeneratingWater(6)
-1 PowerGeneratingWater(7)
-1 PowerGeneratingWater(8)
-1 PowerGeneratingWater(9)
<= -38483.470639434985

c_e_ONE_VAR_CONSTANT: 
ONE_VAR_CONSTANT = 1.0

bounds
   0 <= Pwind <= +inf
   0 <= Ppv <= +inf
   0 <= PowerGeneratingWater(1) <= +inf
   0 <= PowerGeneratingWater(2) <= +inf
   0 <= PowerGeneratingWater(3) <= +inf
   0 <= PowerGeneratingWater(4) <= +inf
   0 <= PowerGeneratingWater(5) <= +inf
   0 <= PowerGeneratingWater(6) <= +inf
   0 <= PowerGeneratingWater(7) <= +inf
   0 <= PowerGeneratingWater(8) <= +inf
   0 <= PowerGeneratingWater(9) <= +inf
   0 <= PowerGeneratingWater(10) <= +inf
   0 <= PowerGeneratingWater(11) <= +inf
   0 <= PowerGeneratingWater(12) <= +inf
   0 <= PowerGeneratingWater(13) <= +inf
   0 <= PowerGeneratingWater(14) <= +inf
   0 <= PowerGeneratingWater(15) <= +inf
   0 <= PowerGeneratingWater(16) <= +inf
   0 <= PowerGeneratingWater(17) <= +inf
   0 <= PowerGeneratingWater(18) <= +inf
   0 <= PowerGeneratingWater(19) <= +inf
   0 <= PowerGeneratingWater(20) <= +inf
   0 <= PowerGeneratingWater(21) <= +inf
   0 <= PowerGeneratingWater(22) <= +inf
   0 <= PowerGeneratingWater(23) <= +inf
   0 <= PowerGeneratingWater(24) <= +inf
end
